n=5;
sp = [2, 3, 3, 1, 2];
ze = [1, 3, 3, 3, 1];
d1 = [0, 1, 2, 2, 2, 2, 1, 1, 0];
d2 = [0, 1, 2, 2, 2, 2, 1, 1, 0];
spalten = [[0, 5, 10, 15, 20], [1, 6, 11, 16, 21], [2, 7, 12, 17, 22], [3, 8, 13, 18, 23], [4, 9, 14, 19, 24]];
zeilen = [[0, 1, 2, 3, 4], [5, 6, 7, 8, 9], [10, 11, 12, 13, 14], [15, 16, 17, 18, 19], [20, 21, 22, 23, 24]];
diagonals1 = [[0], [1, 5], [2, 6, 10], [3, 7, 11, 15], [4, 8, 12, 16, 20], [9, 13, 17, 21], [14, 18, 22], [19, 23], [24]];
diagonals2 = [[20], [21, 15], [22, 16, 10], [23, 17, 11, 5], [24, 18, 12, 6, 0], [19, 13, 7, 1], [14, 8, 2], [9, 3], [4]];
